c SAT Generator for power-law distributed variable frequencies
c -g u -v 20 -c 91 -k 3 -p 2.750000 -b 3.200000 -f /home/schmidt/Devel/ni-kop-sat/data/ensemble/ruf20-91/ruf20-91-435 -u 1 -U 1 -s 3756922879
p cnf 20 91
11 18 -20 0
-10 17 18 0
-7 -18 19 0
4 -10 18 0
1 -3 15 0
-2 3 -4 0
10 -13 -18 0
1 11 18 0
-12 13 14 0
1 10 -14 0
-5 11 15 0
8 10 15 0
-1 2 3 0
-6 13 20 0
-13 17 -20 0
1 -12 16 0
-3 15 -17 0
-7 11 16 0
2 14 17 0
6 7 10 0
1 3 20 0
-4 7 9 0
-5 -10 18 0
1 -4 -11 0
9 -13 -15 0
-3 6 10 0
-13 14 15 0
-9 10 19 0
-3 14 15 0
-5 15 19 0
5 -18 19 0
-1 16 17 0
5 -11 16 0
-7 9 -10 0
-1 5 20 0
5 -11 -19 0
11 16 20 0
-4 8 -16 0
-9 -17 -19 0
-9 10 17 0
1 -7 -10 0
-1 5 16 0
8 -10 -14 0
-6 15 -18 0
-1 -11 13 0
-1 -7 -20 0
3 16 18 0
-1 11 14 0
-10 13 -16 0
6 -9 16 0
-1 -4 -9 0
2 3 5 0
-11 -12 17 0
3 -6 -12 0
6 13 -16 0
1 16 19 0
3 12 -19 0
10 19 -20 0
-5 6 -13 0
5 -11 15 0
1 4 9 0
-8 13 -18 0
-8 18 19 0
-3 16 19 0
-3 8 18 0
-4 8 16 0
-6 -17 20 0
-6 13 -17 0
-12 13 -19 0
1 -3 11 0
6 -10 -18 0
5 8 18 0
6 9 13 0
7 -11 -18 0
-3 -5 19 0
-2 9 -14 0
4 5 -8 0
-4 -14 16 0
-4 -14 18 0
-7 14 -17 0
8 14 -20 0
5 -6 11 0
2 4 -20 0
-3 10 12 0
-4 -12 -19 0
2 11 13 0
1 -13 17 0
1 4 10 0
-7 17 18 0
-1 -10 12 0
3 -8 11 0
